(set-info :source |printed by MathSAT|)
(declare-fun |.x{1}| () Int)
(declare-fun |.x{253}| () Int)
(declare-fun |.x{21}| () (Array Int Int))
(declare-fun |.x{254}| () (Array Int Int))
(declare-fun |.x{3}| () (Array Int Int))
(declare-fun |.x{255}| () (Array Int Int))
(declare-fun |.x{4}| () (Array Int (Array Int Int)))
(declare-fun |.x{256}| () (Array Int (Array Int Int)))
(declare-fun |.x{5}| () (Array Int (Array Int Int)))
(declare-fun |.x{257}| () (Array Int (Array Int Int)))
(declare-fun |.x{25}| () Int)
(declare-fun |.x{258}| () Int)
(declare-fun |.x{7}| () Int)
(declare-fun |.x{259}| () Int)
(declare-fun |.x{8}| () (Array Int Int))
(declare-fun |.x{260}| () (Array Int Int))
(declare-fun |.x{9}| () (Array Int Int))
(declare-fun |.x{261}| () (Array Int Int))
(declare-fun |.x{29}| () Int)
(declare-fun |.x{262}| () Int)
(declare-fun |.x{11}| () Int)
(declare-fun |.x{263}| () Int)
(declare-fun |.x{12}| () Int)
(declare-fun |.x{264}| () Int)
(declare-fun |.x{13}| () Int)
(declare-fun |.x{265}| () Int)
(declare-fun |.x{14}| () Int)
(declare-fun |.x{266}| () Int)
(declare-fun |.x{15}| () Int)
(declare-fun |.x{267}| () Int)
(declare-fun |.x{16}| () Int)
(declare-fun |.x{268}| () Int)
(declare-fun |.x{17}| () Int)
(declare-fun |.x{269}| () Int)
(declare-fun |.x{18}| () Int)
(declare-fun |.x{270}| () Int)
(declare-fun |.x{19}| () Bool)
(declare-fun |.x{233}| () Bool)
(declare-fun |.loc{3}| () Bool)
(declare-fun |.loc{5}| () Bool)
(declare-fun |.loc{4}| () Bool)
(declare-fun |.loc{6}| () Bool)
(declare-fun |.x{75}| () (Array Int Int))
(declare-fun |.x{138}| () Int)
(define-fun .def_48 () Bool (! |.loc{4}| :next |.loc{6}|))
(define-fun .def_163 () Bool (not .def_48))
(define-fun .def_46 () Bool (! |.loc{3}| :next |.loc{5}|))
(define-fun .def_65 () Bool (not .def_46))
(define-fun .def_177 () Bool (and .def_65 .def_163))
(define-fun .def_44 () Bool (! |.x{19}| :next |.x{233}|))
(define-fun .def_171 () Bool (not .def_44))
(define-fun .def_16 () (Array Int (Array Int Int)) (! |.x{5}| :next |.x{257}|))
(define-fun .def_14 () (Array Int (Array Int Int)) (! |.x{4}| :next |.x{256}|))
(define-fun .def_170 () Bool (= .def_14 .def_16))
(define-fun .def_172 () Bool (and .def_170 .def_171))
(define-fun .def_28 () Int (! |.x{11}| :next |.x{263}|))
(define-fun .def_26 () Int (! |.x{29}| :next |.x{262}|))
(define-fun .def_169 () Bool (= .def_26 .def_28))
(define-fun .def_173 () Bool (and .def_169 .def_172))
(define-fun .def_20 () Int (! |.x{7}| :next |.x{259}|))
(define-fun .def_18 () Int (! |.x{25}| :next |.x{258}|))
(define-fun .def_168 () Bool (= .def_18 .def_20))
(define-fun .def_174 () Bool (and .def_168 .def_173))
(define-fun .def_24 () (Array Int Int) (! |.x{9}| :next |.x{261}|))
(define-fun .def_22 () (Array Int Int) (! |.x{8}| :next |.x{260}|))
(define-fun .def_167 () Bool (= .def_22 .def_24))
(define-fun .def_175 () Bool (and .def_167 .def_174))
(define-fun .def_12 () (Array Int Int) (! |.x{3}| :next |.x{255}|))
(define-fun .def_10 () (Array Int Int) (! |.x{21}| :next |.x{254}|))
(define-fun .def_166 () Bool (= .def_10 .def_12))
(define-fun .def_176 () Bool (and .def_166 .def_175))
(define-fun .def_178 () Bool (! (and .def_176 .def_177) :init true))
(define-fun .def_161 () Bool (= .def_28 |.x{263}|))
(define-fun .def_159 () Bool (= .def_24 |.x{261}|))
(define-fun .def_157 () Bool (= .def_20 |.x{259}|))
(define-fun .def_155 () Bool (= .def_16 |.x{257}|))
(define-fun .def_8 () Int (! |.x{1}| :next |.x{253}|))
(define-fun .def_153 () Bool (= .def_8 |.x{253}|))
(define-fun .def_152 () Bool (= .def_12 |.x{255}|))
(define-fun .def_154 () Bool (and .def_152 .def_153))
(define-fun .def_156 () Bool (and .def_154 .def_155))
(define-fun .def_158 () Bool (and .def_156 .def_157))
(define-fun .def_160 () Bool (and .def_158 .def_159))
(define-fun .def_162 () Bool (and .def_160 .def_161))
(define-fun .def_164 () Bool (and .def_162 .def_163))
(define-fun .def_147 () Bool (not |.loc{5}|))
(define-fun .def_71 () Bool (= |.x{138}| 2))
(define-fun .def_143 () Bool (not .def_71))
(define-fun .def_144 () Bool (or .def_44 .def_143))
(define-fun .def_104 () (Array Int Int) (select |.x{256}| |.x{266}|))
(define-fun .def_105 () Int (select .def_104 |.x{264}|))
(define-fun .def_106 () Bool (= |.x{138}| .def_105))
(define-fun .def_101 () Bool (= |.x{264}| |.x{270}|))
(define-fun .def_99 () Bool (= |.x{264}| 0))
(define-fun .def_96 () Bool (= |.x{266}| |.x{268}|))
(define-fun .def_93 () (Array Int Int) (store |.x{75}| |.x{266}| 1))
(define-fun .def_94 () Bool (= |.x{254}| .def_93))
(define-fun .def_90 () Bool (= |.x{266}| 0))
(define-fun .def_91 () Bool (not .def_90))
(define-fun .def_87 () Int (select |.x{75}| |.x{266}|))
(define-fun .def_88 () Bool (= .def_87 0))
(define-fun .def_80 () (Array Int Int) (select .def_14 |.x{266}|))
(define-fun .def_81 () (Array Int Int) (store .def_80 |.x{264}| 1))
(define-fun .def_82 () (Array Int (Array Int Int)) (store .def_14 |.x{266}| .def_81))
(define-fun .def_83 () (Array Int Int) (select .def_82 |.x{268}|))
(define-fun .def_84 () (Array Int Int) (store .def_83 |.x{270}| 2))
(define-fun .def_85 () (Array Int (Array Int Int)) (store .def_82 |.x{268}| .def_84))
(define-fun .def_86 () Bool (= |.x{256}| .def_85))
(define-fun .def_89 () Bool (and .def_86 .def_88))
(define-fun .def_92 () Bool (and .def_89 .def_91))
(define-fun .def_95 () Bool (and .def_92 .def_94))
(define-fun .def_97 () Bool (and .def_95 .def_96))
(define-fun .def_77 () Bool (<= |.x{253}| |.x{266}|))
(define-fun .def_78 () Bool (not .def_77))
(define-fun .def_98 () Bool (and .def_78 .def_97))
(define-fun .def_100 () Bool (and .def_98 .def_99))
(define-fun .def_102 () Bool (and .def_100 .def_101))
(define-fun .def_75 () (Array Int Int) (store .def_22 |.x{266}| 4))
(define-fun .def_76 () Bool (= |.x{260}| .def_75))
(define-fun .def_103 () Bool (and .def_76 .def_102))
(define-fun .def_107 () Bool (and .def_103 .def_106))
(define-fun .def_141 () Bool (or .def_44 .def_107))
(define-fun .def_32 () Int (! |.x{13}| :next |.x{265}|))
(define-fun .def_63 () Bool (= .def_32 |.x{265}|))
(define-fun .def_56 () (Array Int Int) (store .def_10 0 0))
(define-fun .def_57 () Bool (= |.x{75}| .def_56))
(define-fun .def_53 () Bool (= |.x{258}| 0))
(define-fun .def_52 () Bool (= |.x{262}| 0))
(define-fun .def_54 () Bool (and .def_52 .def_53))
(define-fun .def_58 () Bool (and .def_54 .def_57))
(define-fun .def_59 () Bool (or .def_44 .def_58))
(define-fun .def_60 () Bool (and |.x{233}| .def_59))
(define-fun .def_139 () Bool (and .def_60 .def_63))
(define-fun .def_140 () Bool (and .def_65 .def_139))
(define-fun .def_142 () Bool (and .def_140 .def_141))
(define-fun .def_145 () Bool (and .def_142 .def_144))
(define-fun .def_137 () Bool (= .def_14 |.x{256}|))
(define-fun .def_135 () Bool (= .def_18 |.x{258}|))
(define-fun .def_133 () Bool (= .def_22 |.x{260}|))
(define-fun .def_131 () Bool (= .def_26 |.x{262}|))
(define-fun .def_36 () Int (! |.x{15}| :next |.x{267}|))
(define-fun .def_129 () Bool (= .def_36 |.x{267}|))
(define-fun .def_38 () Int (! |.x{16}| :next |.x{268}|))
(define-fun .def_127 () Bool (= .def_38 |.x{268}|))
(define-fun .def_40 () Int (! |.x{17}| :next |.x{269}|))
(define-fun .def_125 () Bool (= .def_40 |.x{269}|))
(define-fun .def_42 () Int (! |.x{18}| :next |.x{270}|))
(define-fun .def_123 () Bool (= .def_42 |.x{270}|))
(define-fun .def_118 () Bool (= |.x{265}| |.x{267}|))
(define-fun .def_119 () Bool (or |.x{233}| .def_118))
(define-fun .def_34 () Int (! |.x{14}| :next |.x{266}|))
(define-fun .def_115 () (Array Int Int) (store .def_10 .def_34 0))
(define-fun .def_116 () Bool (= |.x{254}| .def_115))
(define-fun .def_117 () Bool (or .def_44 .def_116))
(define-fun .def_120 () Bool (and .def_117 .def_119))
(define-fun .def_110 () Bool (= .def_44 |.x{233}|))
(define-fun .def_121 () Bool (and .def_110 .def_120))
(define-fun .def_122 () Bool (and .def_46 .def_121))
(define-fun .def_124 () Bool (and .def_122 .def_123))
(define-fun .def_126 () Bool (and .def_124 .def_125))
(define-fun .def_128 () Bool (and .def_126 .def_127))
(define-fun .def_130 () Bool (and .def_128 .def_129))
(define-fun .def_132 () Bool (and .def_130 .def_131))
(define-fun .def_134 () Bool (and .def_132 .def_133))
(define-fun .def_136 () Bool (and .def_134 .def_135))
(define-fun .def_138 () Bool (and .def_136 .def_137))
(define-fun .def_146 () Bool (or .def_138 .def_145))
(define-fun .def_148 () Bool (and .def_146 .def_147))
(define-fun .def_149 () Bool (and |.loc{6}| .def_148))
(define-fun .def_108 () Bool (or |.x{233}| .def_107))
(define-fun .def_72 () Bool (or |.x{233}| .def_71))
(define-fun .def_50 () Bool (not |.loc{6}|))
(define-fun .def_68 () Bool (and .def_50 .def_59))
(define-fun .def_73 () Bool (and .def_68 .def_72))
(define-fun .def_109 () Bool (and .def_73 .def_108))
(define-fun .def_111 () Bool (and .def_109 .def_110))
(define-fun .def_112 () Bool (and .def_63 .def_111))
(define-fun .def_113 () Bool (and .def_65 .def_112))
(define-fun .def_114 () Bool (and |.loc{5}| .def_113))
(define-fun .def_150 () Bool (or .def_114 .def_149))
(define-fun .def_61 () Bool (and .def_50 .def_60))
(define-fun .def_62 () Bool (and .def_44 .def_61))
(define-fun .def_64 () Bool (and .def_62 .def_63))
(define-fun .def_66 () Bool (and .def_64 .def_65))
(define-fun .def_67 () Bool (and |.loc{5}| .def_66))
(define-fun .def_151 () Bool (or .def_67 .def_150))
(define-fun .def_165 () Bool (! (and .def_151 .def_164) :trans true))
(define-fun .def_30 () Int (! |.x{12}| :next |.x{264}|))
(define-fun .def_179 () Bool (and .def_48 .def_65))
(define-fun .def_180 () Bool (and .def_44 .def_179))
(define-fun .def_181 () Bool (! (not .def_180) :invar-property 0))
(assert true)
